letting input=[24,51,24,41,57,7,28,39,52,65,14,70,2,9,26,31,7,64,64,69,34,10,46,9,26,20,35,31,29,51,49,53,33,57,58]
letting output=[46,61,51,26,14,40,18,13,13,49,30,39,25,32,54,16,22,12,56,22,70,59,33,39,49,31,15,17,60,17,5,21,56,60,59]
letting MAX_OPS=688
letting num_registers=0
